predicate gecode_int_element(var int: idx,int: idxoffset,array [int] of var int: x,var int: c);
predicate array_int_minimum(var int: m,array [int] of var int: x);
predicate fzn_all_different_int(array [int] of var int: x);
predicate int_eq_imp(var int: a,var int: b,var bool: r);
predicate int_lin_le_imp(array [int] of int: as,array [int] of var int: bs,int: c,var bool: r);
predicate gecode_bool_element(var int: idx,int: idxoffset,array [int] of var bool: x,var bool: c);
predicate int_lin_eq_imp(array [int] of int: as,array [int] of var int: bs,int: c,var bool: r);
predicate bool_clause_reif(array [int] of var bool: as,array [int] of var bool: bs,var bool: b);
array [1..15] of int: X_INTRODUCED_16_ = [0,372,290,660,111,753,21,582,969,292,685,338,901,310,912];
array [1..15] of int: X_INTRODUCED_18_ = [0,0,792,410,693,95,532,629,815,873,4,840,347,540,406];
array [1..15] of int: X_INTRODUCED_20_ = [290,792,0,204,593,448,716,136,358,302,589,187,276,805,156];
array [1..15] of int: X_INTRODUCED_22_ = [660,410,204,0,686,685,633,319,340,652,259,861,768,332,189];
array [1..15] of int: X_INTRODUCED_24_ = [111,693,593,686,0,628,69,890,916,434,36,791,281,717,258];
array [1..15] of int: X_INTRODUCED_26_ = [753,95,448,685,628,0,177,177,785,980,421,227,255,580,7];
array [1..15] of int: X_INTRODUCED_28_ = [21,532,716,633,69,177,0,21,985,788,29,175,311,180,375];
array [1..15] of int: X_INTRODUCED_30_ = [582,629,136,319,890,177,21,0,458,579,164,849,456,982,764];
array [1..15] of int: X_INTRODUCED_32_ = [969,815,358,340,916,785,985,458,0,115,234,559,610,736,633];
array [1..15] of int: X_INTRODUCED_34_ = [292,873,302,652,434,980,788,579,115,0,360,393,698,928,692];
array [1..15] of int: X_INTRODUCED_36_ = [685,4,589,259,36,421,29,164,234,360,0,896,776,18,44];
array [1..15] of int: X_INTRODUCED_38_ = [338,840,187,861,791,227,175,849,559,393,896,0,356,217,917];
array [1..15] of int: X_INTRODUCED_40_ = [901,347,276,768,281,255,311,456,610,698,776,356,0,613,409];
array [1..15] of int: X_INTRODUCED_42_ = [310,540,805,332,717,580,180,982,736,928,18,217,613,0,854];
array [1..15] of int: X_INTRODUCED_44_ = [912,406,156,189,258,7,375,764,633,692,44,917,409,854,0];
array [1..16] of int: X_INTRODUCED_49_ = [1,-1,-1,-1,-1,-1,-1,-1,-1,-1,-1,-1,-1,-1,-1,-1];
array [1..14] of int: X_INTRODUCED_108_ = [1,-3,-58,-67,-5,-11,-46,-62,-27,-92,-8,-52,-60,-62];
array [1..2] of int: X_INTRODUCED_186_ = [-1,1];
array [1..2] of int: X_INTRODUCED_201_ = [1,-1];
var 1..15: X_INTRODUCED_0_;
var 1..15: X_INTRODUCED_2_;
var 1..15: X_INTRODUCED_3_;
var 1..15: X_INTRODUCED_4_;
var 1..15: X_INTRODUCED_5_;
var 1..15: X_INTRODUCED_6_;
var 1..15: X_INTRODUCED_7_;
var 1..15: X_INTRODUCED_8_;
var 1..15: X_INTRODUCED_9_;
var 1..15: X_INTRODUCED_10_;
var 1..15: X_INTRODUCED_11_;
var 1..15: X_INTRODUCED_12_;
var 1..15: X_INTRODUCED_13_;
var 1..15: X_INTRODUCED_14_;
var 0..2000: fuel:: is_defined_var:: output_var;
var 0..553: objective:: output_var:: is_defined_var;
var 0..969: X_INTRODUCED_17_ ::var_is_introduced :: is_defined_var;
var 0..873: X_INTRODUCED_19_ ::var_is_introduced :: is_defined_var;
var 0..805: X_INTRODUCED_21_ ::var_is_introduced :: is_defined_var;
var 0..861: X_INTRODUCED_23_ ::var_is_introduced :: is_defined_var;
var 0..916: X_INTRODUCED_25_ ::var_is_introduced :: is_defined_var;
var 0..980: X_INTRODUCED_27_ ::var_is_introduced :: is_defined_var;
var 0..985: X_INTRODUCED_29_ ::var_is_introduced :: is_defined_var;
var 0..982: X_INTRODUCED_31_ ::var_is_introduced :: is_defined_var;
var 0..985: X_INTRODUCED_33_ ::var_is_introduced :: is_defined_var;
var 0..980: X_INTRODUCED_35_ ::var_is_introduced :: is_defined_var;
var 0..896: X_INTRODUCED_37_ ::var_is_introduced :: is_defined_var;
var 0..917: X_INTRODUCED_39_ ::var_is_introduced :: is_defined_var;
var 0..901: X_INTRODUCED_41_ ::var_is_introduced :: is_defined_var;
var 0..982: X_INTRODUCED_43_ ::var_is_introduced :: is_defined_var;
var 0..917: X_INTRODUCED_45_ ::var_is_introduced :: is_defined_var;
var bool: X_INTRODUCED_50_ ::var_is_introduced :: is_defined_var;
var 0..1: X_INTRODUCED_51_ ::var_is_introduced :: is_defined_var;
var bool: X_INTRODUCED_54_ ::var_is_introduced :: is_defined_var;
var 0..1: X_INTRODUCED_55_ ::var_is_introduced :: is_defined_var;
var bool: X_INTRODUCED_58_ ::var_is_introduced :: is_defined_var;
var 0..1: X_INTRODUCED_59_ ::var_is_introduced :: is_defined_var;
var bool: X_INTRODUCED_62_ ::var_is_introduced :: is_defined_var;
var 0..1: X_INTRODUCED_63_ ::var_is_introduced :: is_defined_var;
var bool: X_INTRODUCED_66_ ::var_is_introduced :: is_defined_var;
var 0..1: X_INTRODUCED_67_ ::var_is_introduced :: is_defined_var;
var bool: X_INTRODUCED_70_ ::var_is_introduced :: is_defined_var;
var 0..1: X_INTRODUCED_71_ ::var_is_introduced :: is_defined_var;
var bool: X_INTRODUCED_74_ ::var_is_introduced :: is_defined_var;
var 0..1: X_INTRODUCED_75_ ::var_is_introduced :: is_defined_var;
var bool: X_INTRODUCED_78_ ::var_is_introduced :: is_defined_var;
var 0..1: X_INTRODUCED_79_ ::var_is_introduced :: is_defined_var;
var bool: X_INTRODUCED_82_ ::var_is_introduced :: is_defined_var;
var 0..1: X_INTRODUCED_83_ ::var_is_introduced :: is_defined_var;
var bool: X_INTRODUCED_86_ ::var_is_introduced :: is_defined_var;
var 0..1: X_INTRODUCED_87_ ::var_is_introduced :: is_defined_var;
var bool: X_INTRODUCED_90_ ::var_is_introduced :: is_defined_var;
var 0..1: X_INTRODUCED_91_ ::var_is_introduced :: is_defined_var;
var bool: X_INTRODUCED_94_ ::var_is_introduced :: is_defined_var;
var 0..1: X_INTRODUCED_95_ ::var_is_introduced :: is_defined_var;
var bool: X_INTRODUCED_98_ ::var_is_introduced :: is_defined_var;
var 0..1: X_INTRODUCED_99_ ::var_is_introduced :: is_defined_var;
var bool: X_INTRODUCED_102_ ::var_is_introduced :: is_defined_var;
var 0..1: X_INTRODUCED_103_ ::var_is_introduced :: is_defined_var;
var 1..16: X_INTRODUCED_112_ ::var_is_introduced :: is_defined_var;
var 3..16: X_INTRODUCED_116_ ::var_is_introduced :: is_defined_var;
var 4..16: X_INTRODUCED_118_ ::var_is_introduced :: is_defined_var;
var 5..16: X_INTRODUCED_120_ ::var_is_introduced :: is_defined_var;
var 6..16: X_INTRODUCED_122_ ::var_is_introduced :: is_defined_var;
var 7..16: X_INTRODUCED_124_ ::var_is_introduced :: is_defined_var;
var 8..16: X_INTRODUCED_126_ ::var_is_introduced :: is_defined_var;
var 9..16: X_INTRODUCED_128_ ::var_is_introduced :: is_defined_var;
var 10..16: X_INTRODUCED_130_ ::var_is_introduced :: is_defined_var;
var 11..16: X_INTRODUCED_132_ ::var_is_introduced :: is_defined_var;
var 12..16: X_INTRODUCED_134_ ::var_is_introduced :: is_defined_var;
var 13..16: X_INTRODUCED_136_ ::var_is_introduced :: is_defined_var;
var 14..16: X_INTRODUCED_138_ ::var_is_introduced :: is_defined_var;
var 15..16: X_INTRODUCED_140_ ::var_is_introduced :: is_defined_var;
var 1..16: X_INTRODUCED_142_ ::var_is_introduced :: is_defined_var;
var 1..15: X_INTRODUCED_143_ ::var_is_introduced ;
var bool: X_INTRODUCED_144_ ::var_is_introduced :: is_defined_var;
var 1..15: X_INTRODUCED_145_ ::var_is_introduced ;
var 1..15: X_INTRODUCED_146_ ::var_is_introduced ;
var 1..15: X_INTRODUCED_147_ ::var_is_introduced ;
var 1..15: X_INTRODUCED_148_ ::var_is_introduced ;
var 1..15: X_INTRODUCED_149_ ::var_is_introduced ;
var 1..15: X_INTRODUCED_150_ ::var_is_introduced ;
var 1..15: X_INTRODUCED_151_ ::var_is_introduced ;
var 1..15: X_INTRODUCED_152_ ::var_is_introduced ;
var 1..15: X_INTRODUCED_153_ ::var_is_introduced ;
var 1..15: X_INTRODUCED_154_ ::var_is_introduced ;
var 1..15: X_INTRODUCED_155_ ::var_is_introduced ;
var 1..15: X_INTRODUCED_156_ ::var_is_introduced ;
var 1..15: X_INTRODUCED_157_ ::var_is_introduced ;
var 1..15: X_INTRODUCED_158_ ::var_is_introduced ;
var 1..15: X_INTRODUCED_159_ ::var_is_introduced ;
var bool: X_INTRODUCED_160_ ::var_is_introduced :: is_defined_var;
var bool: X_INTRODUCED_162_ ::var_is_introduced :: is_defined_var;
var bool: X_INTRODUCED_163_ ::var_is_introduced :: is_defined_var;
var bool: X_INTRODUCED_164_ ::var_is_introduced :: is_defined_var;
var bool: X_INTRODUCED_165_ ::var_is_introduced :: is_defined_var;
var bool: X_INTRODUCED_166_ ::var_is_introduced :: is_defined_var;
var bool: X_INTRODUCED_167_ ::var_is_introduced :: is_defined_var;
var bool: X_INTRODUCED_168_ ::var_is_introduced :: is_defined_var;
var bool: X_INTRODUCED_169_ ::var_is_introduced :: is_defined_var;
var bool: X_INTRODUCED_170_ ::var_is_introduced :: is_defined_var;
var bool: X_INTRODUCED_171_ ::var_is_introduced :: is_defined_var;
var bool: X_INTRODUCED_172_ ::var_is_introduced :: is_defined_var;
var bool: X_INTRODUCED_173_ ::var_is_introduced :: is_defined_var;
var bool: X_INTRODUCED_174_ ::var_is_introduced :: is_defined_var;
var bool: X_INTRODUCED_178_ ::var_is_introduced :: is_defined_var;
var 1..15: X_INTRODUCED_179_ ::var_is_introduced :: is_defined_var;
var 1..15: X_INTRODUCED_180_ ::var_is_introduced ;
var bool: X_INTRODUCED_183_ ::var_is_introduced :: is_defined_var;
var bool: X_INTRODUCED_184_ ::var_is_introduced :: is_defined_var;
var bool: X_INTRODUCED_187_ ::var_is_introduced :: is_defined_var;
var 1..15: X_INTRODUCED_188_ ::var_is_introduced :: is_defined_var;
var bool: X_INTRODUCED_189_ ::var_is_introduced :: is_defined_var;
var bool: X_INTRODUCED_190_ ::var_is_introduced :: is_defined_var;
var bool: X_INTRODUCED_191_ ::var_is_introduced :: is_defined_var;
var 1..15: X_INTRODUCED_192_ ::var_is_introduced ;
var bool: X_INTRODUCED_194_ ::var_is_introduced :: is_defined_var;
var bool: X_INTRODUCED_196_ ::var_is_introduced :: is_defined_var;
var 1..15: X_INTRODUCED_198_ ::var_is_introduced :: is_defined_var;
var bool: X_INTRODUCED_202_ ::var_is_introduced :: is_defined_var;
var bool: X_INTRODUCED_203_ ::var_is_introduced :: is_defined_var;
var bool: X_INTRODUCED_204_ ::var_is_introduced :: is_defined_var;
var 1..15: X_INTRODUCED_206_ ::var_is_introduced :: is_defined_var;
var bool: X_INTRODUCED_208_ ::var_is_introduced :: is_defined_var;
var bool: X_INTRODUCED_209_ ::var_is_introduced :: is_defined_var;
var bool: X_INTRODUCED_210_ ::var_is_introduced :: is_defined_var;
var 1..15: X_INTRODUCED_212_ ::var_is_introduced :: is_defined_var;
var bool: X_INTRODUCED_214_ ::var_is_introduced :: is_defined_var;
var bool: X_INTRODUCED_215_ ::var_is_introduced :: is_defined_var;
var bool: X_INTRODUCED_216_ ::var_is_introduced :: is_defined_var;
var 1..15: X_INTRODUCED_218_ ::var_is_introduced :: is_defined_var;
var bool: X_INTRODUCED_220_ ::var_is_introduced :: is_defined_var;
var bool: X_INTRODUCED_221_ ::var_is_introduced :: is_defined_var;
var bool: X_INTRODUCED_222_ ::var_is_introduced :: is_defined_var;
var 1..15: X_INTRODUCED_224_ ::var_is_introduced :: is_defined_var;
var bool: X_INTRODUCED_226_ ::var_is_introduced :: is_defined_var;
var bool: X_INTRODUCED_227_ ::var_is_introduced :: is_defined_var;
var bool: X_INTRODUCED_228_ ::var_is_introduced :: is_defined_var;
var 1..15: X_INTRODUCED_230_ ::var_is_introduced :: is_defined_var;
var bool: X_INTRODUCED_232_ ::var_is_introduced :: is_defined_var;
var bool: X_INTRODUCED_233_ ::var_is_introduced :: is_defined_var;
var bool: X_INTRODUCED_234_ ::var_is_introduced :: is_defined_var;
var 1..15: X_INTRODUCED_236_ ::var_is_introduced :: is_defined_var;
var bool: X_INTRODUCED_238_ ::var_is_introduced :: is_defined_var;
var bool: X_INTRODUCED_239_ ::var_is_introduced :: is_defined_var;
var bool: X_INTRODUCED_240_ ::var_is_introduced :: is_defined_var;
var 1..15: X_INTRODUCED_242_ ::var_is_introduced :: is_defined_var;
var bool: X_INTRODUCED_244_ ::var_is_introduced :: is_defined_var;
var bool: X_INTRODUCED_245_ ::var_is_introduced :: is_defined_var;
var bool: X_INTRODUCED_246_ ::var_is_introduced :: is_defined_var;
var 1..15: X_INTRODUCED_248_ ::var_is_introduced :: is_defined_var;
var bool: X_INTRODUCED_250_ ::var_is_introduced :: is_defined_var;
var bool: X_INTRODUCED_251_ ::var_is_introduced :: is_defined_var;
var bool: X_INTRODUCED_252_ ::var_is_introduced :: is_defined_var;
var 1..15: X_INTRODUCED_254_ ::var_is_introduced :: is_defined_var;
var bool: X_INTRODUCED_256_ ::var_is_introduced :: is_defined_var;
var bool: X_INTRODUCED_257_ ::var_is_introduced :: is_defined_var;
var bool: X_INTRODUCED_258_ ::var_is_introduced :: is_defined_var;
var 1..15: X_INTRODUCED_260_ ::var_is_introduced :: is_defined_var;
var bool: X_INTRODUCED_262_ ::var_is_introduced :: is_defined_var;
var bool: X_INTRODUCED_263_ ::var_is_introduced :: is_defined_var;
var bool: X_INTRODUCED_264_ ::var_is_introduced :: is_defined_var;
var 1..15: X_INTRODUCED_266_ ::var_is_introduced :: is_defined_var;
var bool: X_INTRODUCED_268_ ::var_is_introduced :: is_defined_var;
var bool: X_INTRODUCED_269_ ::var_is_introduced :: is_defined_var;
var bool: X_INTRODUCED_270_ ::var_is_introduced :: is_defined_var;
var 1..15: X_INTRODUCED_272_ ::var_is_introduced :: is_defined_var;
var bool: X_INTRODUCED_274_ ::var_is_introduced :: is_defined_var;
var bool: X_INTRODUCED_275_ ::var_is_introduced :: is_defined_var;
var bool: X_INTRODUCED_276_ ::var_is_introduced :: is_defined_var;
var 1..15: X_INTRODUCED_278_ ::var_is_introduced :: is_defined_var;
var bool: X_INTRODUCED_280_ ::var_is_introduced :: is_defined_var;
var bool: X_INTRODUCED_281_ ::var_is_introduced :: is_defined_var;
var bool: X_INTRODUCED_282_ ::var_is_introduced :: is_defined_var;
var 1..15: X_INTRODUCED_284_ ::var_is_introduced :: is_defined_var;
var bool: X_INTRODUCED_286_ ::var_is_introduced :: is_defined_var;
var bool: X_INTRODUCED_287_ ::var_is_introduced :: is_defined_var;
var 1..15: X_INTRODUCED_290_ ::var_is_introduced :: is_defined_var;
var bool: X_INTRODUCED_291_ ::var_is_introduced :: is_defined_var;
var bool: X_INTRODUCED_292_ ::var_is_introduced :: is_defined_var;
var bool: X_INTRODUCED_295_ ::var_is_introduced :: is_defined_var;
var bool: X_INTRODUCED_296_ ::var_is_introduced :: is_defined_var;
var bool: X_INTRODUCED_297_ ::var_is_introduced :: is_defined_var;
var bool: X_INTRODUCED_298_ ::var_is_introduced :: is_defined_var;
var bool: X_INTRODUCED_299_ ::var_is_introduced :: is_defined_var;
var bool: X_INTRODUCED_300_ ::var_is_introduced :: is_defined_var;
var bool: X_INTRODUCED_301_ ::var_is_introduced :: is_defined_var;
var bool: X_INTRODUCED_302_ ::var_is_introduced :: is_defined_var;
var bool: X_INTRODUCED_303_ ::var_is_introduced :: is_defined_var;
var bool: X_INTRODUCED_304_ ::var_is_introduced :: is_defined_var;
var bool: X_INTRODUCED_305_ ::var_is_introduced :: is_defined_var;
var bool: X_INTRODUCED_306_ ::var_is_introduced :: is_defined_var;
var bool: X_INTRODUCED_307_ ::var_is_introduced :: is_defined_var;
var bool: X_INTRODUCED_308_ ::var_is_introduced :: is_defined_var;
var bool: X_INTRODUCED_309_ ::var_is_introduced :: is_defined_var;
var bool: X_INTRODUCED_310_ ::var_is_introduced :: is_defined_var;
var bool: X_INTRODUCED_311_ ::var_is_introduced :: is_defined_var;
var bool: X_INTRODUCED_312_ ::var_is_introduced :: is_defined_var;
var bool: X_INTRODUCED_313_ ::var_is_introduced :: is_defined_var;
var bool: X_INTRODUCED_314_ ::var_is_introduced :: is_defined_var;
var bool: X_INTRODUCED_315_ ::var_is_introduced :: is_defined_var;
var bool: X_INTRODUCED_316_ ::var_is_introduced :: is_defined_var;
var bool: X_INTRODUCED_317_ ::var_is_introduced :: is_defined_var;
var bool: X_INTRODUCED_318_ ::var_is_introduced :: is_defined_var;
var bool: X_INTRODUCED_319_ ::var_is_introduced :: is_defined_var;
var bool: X_INTRODUCED_320_ ::var_is_introduced :: is_defined_var;
var bool: X_INTRODUCED_323_ ::var_is_introduced :: is_defined_var;
var 2..16: X_INTRODUCED_114_ ::var_is_introduced  = 2;
array [1..15] of var int: succ:: output_array([1..15]) = [X_INTRODUCED_0_,1,X_INTRODUCED_2_,X_INTRODUCED_3_,X_INTRODUCED_4_,X_INTRODUCED_5_,X_INTRODUCED_6_,X_INTRODUCED_7_,X_INTRODUCED_8_,X_INTRODUCED_9_,X_INTRODUCED_10_,X_INTRODUCED_11_,X_INTRODUCED_12_,X_INTRODUCED_13_,X_INTRODUCED_14_];
array [1..16] of var int: X_INTRODUCED_48_ ::var_is_introduced  = [fuel,X_INTRODUCED_17_,X_INTRODUCED_19_,X_INTRODUCED_21_,X_INTRODUCED_23_,X_INTRODUCED_25_,X_INTRODUCED_27_,X_INTRODUCED_29_,X_INTRODUCED_31_,X_INTRODUCED_33_,X_INTRODUCED_35_,X_INTRODUCED_37_,X_INTRODUCED_39_,X_INTRODUCED_41_,X_INTRODUCED_43_,X_INTRODUCED_45_];
array [1..14] of var int: X_INTRODUCED_107_ ::var_is_introduced  = [objective,X_INTRODUCED_55_,X_INTRODUCED_59_,X_INTRODUCED_63_,X_INTRODUCED_67_,X_INTRODUCED_71_,X_INTRODUCED_75_,X_INTRODUCED_79_,X_INTRODUCED_83_,X_INTRODUCED_87_,X_INTRODUCED_91_,X_INTRODUCED_95_,X_INTRODUCED_99_,X_INTRODUCED_103_];
array [1..15] of var int: X_INTRODUCED_109_ ::var_is_introduced  = [X_INTRODUCED_145_,X_INTRODUCED_146_,X_INTRODUCED_147_,X_INTRODUCED_148_,X_INTRODUCED_149_,X_INTRODUCED_150_,X_INTRODUCED_151_,X_INTRODUCED_152_,X_INTRODUCED_153_,X_INTRODUCED_154_,X_INTRODUCED_155_,X_INTRODUCED_156_,X_INTRODUCED_157_,X_INTRODUCED_158_,X_INTRODUCED_159_];
array [1..15] of var bool: X_INTRODUCED_110_ ::var_is_introduced  = [X_INTRODUCED_50_,true,X_INTRODUCED_54_,X_INTRODUCED_58_,X_INTRODUCED_62_,X_INTRODUCED_66_,X_INTRODUCED_70_,X_INTRODUCED_74_,X_INTRODUCED_78_,X_INTRODUCED_82_,X_INTRODUCED_86_,X_INTRODUCED_90_,X_INTRODUCED_94_,X_INTRODUCED_98_,X_INTRODUCED_102_];
array [1..15] of var int: X_INTRODUCED_141_ ::var_is_introduced  = [X_INTRODUCED_112_,X_INTRODUCED_114_,X_INTRODUCED_116_,X_INTRODUCED_118_,X_INTRODUCED_120_,X_INTRODUCED_122_,X_INTRODUCED_124_,X_INTRODUCED_126_,X_INTRODUCED_128_,X_INTRODUCED_130_,X_INTRODUCED_132_,X_INTRODUCED_134_,X_INTRODUCED_136_,X_INTRODUCED_138_,X_INTRODUCED_140_];
constraint gecode_int_element(X_INTRODUCED_0_,1,X_INTRODUCED_16_,X_INTRODUCED_17_):: defines_var(X_INTRODUCED_17_);
constraint gecode_int_element(1,1,X_INTRODUCED_18_,X_INTRODUCED_19_):: defines_var(X_INTRODUCED_19_);
constraint gecode_int_element(X_INTRODUCED_2_,1,X_INTRODUCED_20_,X_INTRODUCED_21_):: defines_var(X_INTRODUCED_21_);
constraint gecode_int_element(X_INTRODUCED_3_,1,X_INTRODUCED_22_,X_INTRODUCED_23_):: defines_var(X_INTRODUCED_23_);
constraint gecode_int_element(X_INTRODUCED_4_,1,X_INTRODUCED_24_,X_INTRODUCED_25_):: defines_var(X_INTRODUCED_25_);
constraint gecode_int_element(X_INTRODUCED_5_,1,X_INTRODUCED_26_,X_INTRODUCED_27_):: defines_var(X_INTRODUCED_27_);
constraint gecode_int_element(X_INTRODUCED_6_,1,X_INTRODUCED_28_,X_INTRODUCED_29_):: defines_var(X_INTRODUCED_29_);
constraint gecode_int_element(X_INTRODUCED_7_,1,X_INTRODUCED_30_,X_INTRODUCED_31_):: defines_var(X_INTRODUCED_31_);
constraint gecode_int_element(X_INTRODUCED_8_,1,X_INTRODUCED_32_,X_INTRODUCED_33_):: defines_var(X_INTRODUCED_33_);
constraint gecode_int_element(X_INTRODUCED_9_,1,X_INTRODUCED_34_,X_INTRODUCED_35_):: defines_var(X_INTRODUCED_35_);
constraint gecode_int_element(X_INTRODUCED_10_,1,X_INTRODUCED_36_,X_INTRODUCED_37_):: defines_var(X_INTRODUCED_37_);
constraint gecode_int_element(X_INTRODUCED_11_,1,X_INTRODUCED_38_,X_INTRODUCED_39_):: defines_var(X_INTRODUCED_39_);
constraint gecode_int_element(X_INTRODUCED_12_,1,X_INTRODUCED_40_,X_INTRODUCED_41_):: defines_var(X_INTRODUCED_41_);
constraint gecode_int_element(X_INTRODUCED_13_,1,X_INTRODUCED_42_,X_INTRODUCED_43_):: defines_var(X_INTRODUCED_43_);
constraint gecode_int_element(X_INTRODUCED_14_,1,X_INTRODUCED_44_,X_INTRODUCED_45_):: defines_var(X_INTRODUCED_45_);
constraint int_lin_eq(X_INTRODUCED_49_,X_INTRODUCED_48_,0):: defines_var(fuel);
constraint int_lin_eq(X_INTRODUCED_108_,X_INTRODUCED_107_,0):: defines_var(objective);
constraint array_int_minimum(X_INTRODUCED_142_,X_INTRODUCED_141_):: defines_var(X_INTRODUCED_142_);
constraint fzn_all_different_int(succ);
constraint fzn_all_different_int(X_INTRODUCED_109_);
constraint array_bool_or([X_INTRODUCED_178_,X_INTRODUCED_183_],true);
constraint gecode_int_element(X_INTRODUCED_180_,1,X_INTRODUCED_109_,X_INTRODUCED_179_):: defines_var(X_INTRODUCED_179_);
constraint gecode_int_element(X_INTRODUCED_143_,1,succ,X_INTRODUCED_188_):: defines_var(X_INTRODUCED_188_);
constraint gecode_bool_element(X_INTRODUCED_143_,1,X_INTRODUCED_110_,X_INTRODUCED_190_):: defines_var(X_INTRODUCED_190_);
constraint array_bool_or([X_INTRODUCED_178_,X_INTRODUCED_194_],true);
constraint gecode_bool_element(X_INTRODUCED_192_,1,X_INTRODUCED_110_,X_INTRODUCED_191_):: defines_var(X_INTRODUCED_191_);
constraint gecode_int_element(X_INTRODUCED_0_,1,X_INTRODUCED_109_,X_INTRODUCED_198_):: defines_var(X_INTRODUCED_198_);
constraint gecode_int_element(1,1,X_INTRODUCED_109_,X_INTRODUCED_206_):: defines_var(X_INTRODUCED_206_);
constraint gecode_int_element(X_INTRODUCED_2_,1,X_INTRODUCED_109_,X_INTRODUCED_212_):: defines_var(X_INTRODUCED_212_);
constraint gecode_int_element(X_INTRODUCED_3_,1,X_INTRODUCED_109_,X_INTRODUCED_218_):: defines_var(X_INTRODUCED_218_);
constraint gecode_int_element(X_INTRODUCED_4_,1,X_INTRODUCED_109_,X_INTRODUCED_224_):: defines_var(X_INTRODUCED_224_);
constraint gecode_int_element(X_INTRODUCED_5_,1,X_INTRODUCED_109_,X_INTRODUCED_230_):: defines_var(X_INTRODUCED_230_);
constraint gecode_int_element(X_INTRODUCED_6_,1,X_INTRODUCED_109_,X_INTRODUCED_236_):: defines_var(X_INTRODUCED_236_);
constraint gecode_int_element(X_INTRODUCED_7_,1,X_INTRODUCED_109_,X_INTRODUCED_242_):: defines_var(X_INTRODUCED_242_);
constraint gecode_int_element(X_INTRODUCED_8_,1,X_INTRODUCED_109_,X_INTRODUCED_248_):: defines_var(X_INTRODUCED_248_);
constraint gecode_int_element(X_INTRODUCED_9_,1,X_INTRODUCED_109_,X_INTRODUCED_254_):: defines_var(X_INTRODUCED_254_);
constraint gecode_int_element(X_INTRODUCED_10_,1,X_INTRODUCED_109_,X_INTRODUCED_260_):: defines_var(X_INTRODUCED_260_);
constraint gecode_int_element(X_INTRODUCED_11_,1,X_INTRODUCED_109_,X_INTRODUCED_266_):: defines_var(X_INTRODUCED_266_);
constraint gecode_int_element(X_INTRODUCED_12_,1,X_INTRODUCED_109_,X_INTRODUCED_272_):: defines_var(X_INTRODUCED_272_);
constraint gecode_int_element(X_INTRODUCED_13_,1,X_INTRODUCED_109_,X_INTRODUCED_278_):: defines_var(X_INTRODUCED_278_);
constraint gecode_int_element(X_INTRODUCED_14_,1,X_INTRODUCED_109_,X_INTRODUCED_284_):: defines_var(X_INTRODUCED_284_);
constraint gecode_int_element(X_INTRODUCED_143_,1,X_INTRODUCED_109_,X_INTRODUCED_290_):: defines_var(X_INTRODUCED_290_);
constraint array_bool_or([X_INTRODUCED_144_,X_INTRODUCED_323_],true);
constraint bool_not(X_INTRODUCED_50_,X_INTRODUCED_160_):: defines_var(X_INTRODUCED_160_);
constraint bool_not(X_INTRODUCED_54_,X_INTRODUCED_162_):: defines_var(X_INTRODUCED_162_);
constraint bool_not(X_INTRODUCED_58_,X_INTRODUCED_163_):: defines_var(X_INTRODUCED_163_);
constraint bool_not(X_INTRODUCED_62_,X_INTRODUCED_164_):: defines_var(X_INTRODUCED_164_);
constraint bool_not(X_INTRODUCED_66_,X_INTRODUCED_165_):: defines_var(X_INTRODUCED_165_);
constraint bool_not(X_INTRODUCED_70_,X_INTRODUCED_166_):: defines_var(X_INTRODUCED_166_);
constraint bool_not(X_INTRODUCED_74_,X_INTRODUCED_167_):: defines_var(X_INTRODUCED_167_);
constraint bool_not(X_INTRODUCED_78_,X_INTRODUCED_168_):: defines_var(X_INTRODUCED_168_);
constraint bool_not(X_INTRODUCED_82_,X_INTRODUCED_169_):: defines_var(X_INTRODUCED_169_);
constraint bool_not(X_INTRODUCED_86_,X_INTRODUCED_170_):: defines_var(X_INTRODUCED_170_);
constraint bool_not(X_INTRODUCED_90_,X_INTRODUCED_171_):: defines_var(X_INTRODUCED_171_);
constraint bool_not(X_INTRODUCED_94_,X_INTRODUCED_172_):: defines_var(X_INTRODUCED_172_);
constraint bool_not(X_INTRODUCED_98_,X_INTRODUCED_173_):: defines_var(X_INTRODUCED_173_);
constraint bool_not(X_INTRODUCED_102_,X_INTRODUCED_174_):: defines_var(X_INTRODUCED_174_);
constraint bool_clause([X_INTRODUCED_160_],[X_INTRODUCED_144_]);
constraint bool_clause([],[X_INTRODUCED_144_]);
constraint bool_clause([X_INTRODUCED_162_],[X_INTRODUCED_144_]);
constraint bool_clause([X_INTRODUCED_163_],[X_INTRODUCED_144_]);
constraint bool_clause([X_INTRODUCED_164_],[X_INTRODUCED_144_]);
constraint bool_clause([X_INTRODUCED_165_],[X_INTRODUCED_144_]);
constraint bool_clause([X_INTRODUCED_166_],[X_INTRODUCED_144_]);
constraint bool_clause([X_INTRODUCED_167_],[X_INTRODUCED_144_]);
constraint bool_clause([X_INTRODUCED_168_],[X_INTRODUCED_144_]);
constraint bool_clause([X_INTRODUCED_169_],[X_INTRODUCED_144_]);
constraint bool_clause([X_INTRODUCED_170_],[X_INTRODUCED_144_]);
constraint bool_clause([X_INTRODUCED_171_],[X_INTRODUCED_144_]);
constraint bool_clause([X_INTRODUCED_172_],[X_INTRODUCED_144_]);
constraint bool_clause([X_INTRODUCED_173_],[X_INTRODUCED_144_]);
constraint bool_clause([X_INTRODUCED_174_],[X_INTRODUCED_144_]);
constraint int_eq_imp(X_INTRODUCED_180_,X_INTRODUCED_142_,X_INTRODUCED_178_);
constraint int_eq_imp(X_INTRODUCED_192_,X_INTRODUCED_142_,X_INTRODUCED_178_);
constraint int_ne_reif(X_INTRODUCED_0_,1,X_INTRODUCED_50_):: defines_var(X_INTRODUCED_50_);
constraint bool2int(X_INTRODUCED_50_,X_INTRODUCED_51_):: defines_var(X_INTRODUCED_51_);
constraint int_ne_reif(X_INTRODUCED_2_,3,X_INTRODUCED_54_):: defines_var(X_INTRODUCED_54_);
constraint bool2int(X_INTRODUCED_54_,X_INTRODUCED_55_):: defines_var(X_INTRODUCED_55_);
constraint int_ne_reif(X_INTRODUCED_3_,4,X_INTRODUCED_58_):: defines_var(X_INTRODUCED_58_);
constraint bool2int(X_INTRODUCED_58_,X_INTRODUCED_59_):: defines_var(X_INTRODUCED_59_);
constraint int_ne_reif(X_INTRODUCED_4_,5,X_INTRODUCED_62_):: defines_var(X_INTRODUCED_62_);
constraint bool2int(X_INTRODUCED_62_,X_INTRODUCED_63_):: defines_var(X_INTRODUCED_63_);
constraint int_ne_reif(X_INTRODUCED_5_,6,X_INTRODUCED_66_):: defines_var(X_INTRODUCED_66_);
constraint bool2int(X_INTRODUCED_66_,X_INTRODUCED_67_):: defines_var(X_INTRODUCED_67_);
constraint int_ne_reif(X_INTRODUCED_6_,7,X_INTRODUCED_70_):: defines_var(X_INTRODUCED_70_);
constraint bool2int(X_INTRODUCED_70_,X_INTRODUCED_71_):: defines_var(X_INTRODUCED_71_);
constraint int_ne_reif(X_INTRODUCED_7_,8,X_INTRODUCED_74_):: defines_var(X_INTRODUCED_74_);
constraint bool2int(X_INTRODUCED_74_,X_INTRODUCED_75_):: defines_var(X_INTRODUCED_75_);
constraint int_ne_reif(X_INTRODUCED_8_,9,X_INTRODUCED_78_):: defines_var(X_INTRODUCED_78_);
constraint bool2int(X_INTRODUCED_78_,X_INTRODUCED_79_):: defines_var(X_INTRODUCED_79_);
constraint int_ne_reif(X_INTRODUCED_9_,10,X_INTRODUCED_82_):: defines_var(X_INTRODUCED_82_);
constraint bool2int(X_INTRODUCED_82_,X_INTRODUCED_83_):: defines_var(X_INTRODUCED_83_);
constraint int_ne_reif(X_INTRODUCED_10_,11,X_INTRODUCED_86_):: defines_var(X_INTRODUCED_86_);
constraint bool2int(X_INTRODUCED_86_,X_INTRODUCED_87_):: defines_var(X_INTRODUCED_87_);
constraint int_ne_reif(X_INTRODUCED_11_,12,X_INTRODUCED_90_):: defines_var(X_INTRODUCED_90_);
constraint bool2int(X_INTRODUCED_90_,X_INTRODUCED_91_):: defines_var(X_INTRODUCED_91_);
constraint int_ne_reif(X_INTRODUCED_12_,13,X_INTRODUCED_94_):: defines_var(X_INTRODUCED_94_);
constraint bool2int(X_INTRODUCED_94_,X_INTRODUCED_95_):: defines_var(X_INTRODUCED_95_);
constraint int_ne_reif(X_INTRODUCED_13_,14,X_INTRODUCED_98_):: defines_var(X_INTRODUCED_98_);
constraint bool2int(X_INTRODUCED_98_,X_INTRODUCED_99_):: defines_var(X_INTRODUCED_99_);
constraint int_ne_reif(X_INTRODUCED_14_,15,X_INTRODUCED_102_):: defines_var(X_INTRODUCED_102_);
constraint bool2int(X_INTRODUCED_102_,X_INTRODUCED_103_):: defines_var(X_INTRODUCED_103_);
constraint int_lin_eq([-15,-1],[X_INTRODUCED_51_,X_INTRODUCED_112_],-16):: defines_var(X_INTRODUCED_112_);
constraint int_lin_eq([-13,-1],[X_INTRODUCED_55_,X_INTRODUCED_116_],-16):: defines_var(X_INTRODUCED_116_);
constraint int_lin_eq([-12,-1],[X_INTRODUCED_59_,X_INTRODUCED_118_],-16):: defines_var(X_INTRODUCED_118_);
constraint int_lin_eq([-11,-1],[X_INTRODUCED_63_,X_INTRODUCED_120_],-16):: defines_var(X_INTRODUCED_120_);
constraint int_lin_eq([-10,-1],[X_INTRODUCED_67_,X_INTRODUCED_122_],-16):: defines_var(X_INTRODUCED_122_);
constraint int_lin_eq([-9,-1],[X_INTRODUCED_71_,X_INTRODUCED_124_],-16):: defines_var(X_INTRODUCED_124_);
constraint int_lin_eq([-8,-1],[X_INTRODUCED_75_,X_INTRODUCED_126_],-16):: defines_var(X_INTRODUCED_126_);
constraint int_lin_eq([-7,-1],[X_INTRODUCED_79_,X_INTRODUCED_128_],-16):: defines_var(X_INTRODUCED_128_);
constraint int_lin_eq([-6,-1],[X_INTRODUCED_83_,X_INTRODUCED_130_],-16):: defines_var(X_INTRODUCED_130_);
constraint int_lin_eq([-5,-1],[X_INTRODUCED_87_,X_INTRODUCED_132_],-16):: defines_var(X_INTRODUCED_132_);
constraint int_lin_eq([-4,-1],[X_INTRODUCED_91_,X_INTRODUCED_134_],-16):: defines_var(X_INTRODUCED_134_);
constraint int_lin_eq([-3,-1],[X_INTRODUCED_95_,X_INTRODUCED_136_],-16):: defines_var(X_INTRODUCED_136_);
constraint int_lin_eq([-2,-1],[X_INTRODUCED_99_,X_INTRODUCED_138_],-16):: defines_var(X_INTRODUCED_138_);
constraint int_lin_eq([-1,-1],[X_INTRODUCED_103_,X_INTRODUCED_140_],-16):: defines_var(X_INTRODUCED_140_);
constraint int_le_reif(16,X_INTRODUCED_142_,X_INTRODUCED_144_):: defines_var(X_INTRODUCED_144_);
constraint set_in_reif(X_INTRODUCED_142_,1..15,X_INTRODUCED_178_):: defines_var(X_INTRODUCED_178_);
constraint int_eq_imp(X_INTRODUCED_180_,1,X_INTRODUCED_183_):: defines_var(X_INTRODUCED_183_);
constraint int_eq_reif(X_INTRODUCED_179_,1,X_INTRODUCED_184_):: defines_var(X_INTRODUCED_184_);
constraint int_lin_le_imp(X_INTRODUCED_186_,[X_INTRODUCED_143_,X_INTRODUCED_142_],-1,X_INTRODUCED_187_):: defines_var(X_INTRODUCED_187_);
constraint int_eq_imp(X_INTRODUCED_188_,X_INTRODUCED_142_,X_INTRODUCED_189_):: defines_var(X_INTRODUCED_189_);
constraint int_eq_imp(X_INTRODUCED_192_,1,X_INTRODUCED_194_):: defines_var(X_INTRODUCED_194_);
constraint int_eq_imp(X_INTRODUCED_0_,X_INTRODUCED_142_,X_INTRODUCED_196_):: defines_var(X_INTRODUCED_196_);
constraint int_lin_eq_imp(X_INTRODUCED_201_,[X_INTRODUCED_198_,X_INTRODUCED_145_],1,X_INTRODUCED_202_):: defines_var(X_INTRODUCED_202_);
constraint bool_clause_reif([X_INTRODUCED_196_,X_INTRODUCED_202_],[X_INTRODUCED_50_],X_INTRODUCED_203_):: defines_var(X_INTRODUCED_203_);
constraint int_eq_imp(1,X_INTRODUCED_142_,X_INTRODUCED_204_):: defines_var(X_INTRODUCED_204_);
constraint int_lin_eq_imp(X_INTRODUCED_201_,[X_INTRODUCED_206_,X_INTRODUCED_146_],1,X_INTRODUCED_208_):: defines_var(X_INTRODUCED_208_);
constraint bool_clause_reif([X_INTRODUCED_204_,X_INTRODUCED_208_],[],X_INTRODUCED_209_):: defines_var(X_INTRODUCED_209_);
constraint int_eq_imp(X_INTRODUCED_2_,X_INTRODUCED_142_,X_INTRODUCED_210_):: defines_var(X_INTRODUCED_210_);
constraint int_lin_eq_imp(X_INTRODUCED_201_,[X_INTRODUCED_212_,X_INTRODUCED_147_],1,X_INTRODUCED_214_):: defines_var(X_INTRODUCED_214_);
constraint bool_clause_reif([X_INTRODUCED_210_,X_INTRODUCED_214_],[X_INTRODUCED_54_],X_INTRODUCED_215_):: defines_var(X_INTRODUCED_215_);
constraint int_eq_imp(X_INTRODUCED_3_,X_INTRODUCED_142_,X_INTRODUCED_216_):: defines_var(X_INTRODUCED_216_);
constraint int_lin_eq_imp(X_INTRODUCED_201_,[X_INTRODUCED_218_,X_INTRODUCED_148_],1,X_INTRODUCED_220_):: defines_var(X_INTRODUCED_220_);
constraint bool_clause_reif([X_INTRODUCED_216_,X_INTRODUCED_220_],[X_INTRODUCED_58_],X_INTRODUCED_221_):: defines_var(X_INTRODUCED_221_);
constraint int_eq_imp(X_INTRODUCED_4_,X_INTRODUCED_142_,X_INTRODUCED_222_):: defines_var(X_INTRODUCED_222_);
constraint int_lin_eq_imp(X_INTRODUCED_201_,[X_INTRODUCED_224_,X_INTRODUCED_149_],1,X_INTRODUCED_226_):: defines_var(X_INTRODUCED_226_);
constraint bool_clause_reif([X_INTRODUCED_222_,X_INTRODUCED_226_],[X_INTRODUCED_62_],X_INTRODUCED_227_):: defines_var(X_INTRODUCED_227_);
constraint int_eq_imp(X_INTRODUCED_5_,X_INTRODUCED_142_,X_INTRODUCED_228_):: defines_var(X_INTRODUCED_228_);
constraint int_lin_eq_imp(X_INTRODUCED_201_,[X_INTRODUCED_230_,X_INTRODUCED_150_],1,X_INTRODUCED_232_):: defines_var(X_INTRODUCED_232_);
constraint bool_clause_reif([X_INTRODUCED_228_,X_INTRODUCED_232_],[X_INTRODUCED_66_],X_INTRODUCED_233_):: defines_var(X_INTRODUCED_233_);
constraint int_eq_imp(X_INTRODUCED_6_,X_INTRODUCED_142_,X_INTRODUCED_234_):: defines_var(X_INTRODUCED_234_);
constraint int_lin_eq_imp(X_INTRODUCED_201_,[X_INTRODUCED_236_,X_INTRODUCED_151_],1,X_INTRODUCED_238_):: defines_var(X_INTRODUCED_238_);
constraint bool_clause_reif([X_INTRODUCED_234_,X_INTRODUCED_238_],[X_INTRODUCED_70_],X_INTRODUCED_239_):: defines_var(X_INTRODUCED_239_);
constraint int_eq_imp(X_INTRODUCED_7_,X_INTRODUCED_142_,X_INTRODUCED_240_):: defines_var(X_INTRODUCED_240_);
constraint int_lin_eq_imp(X_INTRODUCED_201_,[X_INTRODUCED_242_,X_INTRODUCED_152_],1,X_INTRODUCED_244_):: defines_var(X_INTRODUCED_244_);
constraint bool_clause_reif([X_INTRODUCED_240_,X_INTRODUCED_244_],[X_INTRODUCED_74_],X_INTRODUCED_245_):: defines_var(X_INTRODUCED_245_);
constraint int_eq_imp(X_INTRODUCED_8_,X_INTRODUCED_142_,X_INTRODUCED_246_):: defines_var(X_INTRODUCED_246_);
constraint int_lin_eq_imp(X_INTRODUCED_201_,[X_INTRODUCED_248_,X_INTRODUCED_153_],1,X_INTRODUCED_250_):: defines_var(X_INTRODUCED_250_);
constraint bool_clause_reif([X_INTRODUCED_246_,X_INTRODUCED_250_],[X_INTRODUCED_78_],X_INTRODUCED_251_):: defines_var(X_INTRODUCED_251_);
constraint int_eq_imp(X_INTRODUCED_9_,X_INTRODUCED_142_,X_INTRODUCED_252_):: defines_var(X_INTRODUCED_252_);
constraint int_lin_eq_imp(X_INTRODUCED_201_,[X_INTRODUCED_254_,X_INTRODUCED_154_],1,X_INTRODUCED_256_):: defines_var(X_INTRODUCED_256_);
constraint bool_clause_reif([X_INTRODUCED_252_,X_INTRODUCED_256_],[X_INTRODUCED_82_],X_INTRODUCED_257_):: defines_var(X_INTRODUCED_257_);
constraint int_eq_imp(X_INTRODUCED_10_,X_INTRODUCED_142_,X_INTRODUCED_258_):: defines_var(X_INTRODUCED_258_);
constraint int_lin_eq_imp(X_INTRODUCED_201_,[X_INTRODUCED_260_,X_INTRODUCED_155_],1,X_INTRODUCED_262_):: defines_var(X_INTRODUCED_262_);
constraint bool_clause_reif([X_INTRODUCED_258_,X_INTRODUCED_262_],[X_INTRODUCED_86_],X_INTRODUCED_263_):: defines_var(X_INTRODUCED_263_);
constraint int_eq_imp(X_INTRODUCED_11_,X_INTRODUCED_142_,X_INTRODUCED_264_):: defines_var(X_INTRODUCED_264_);
constraint int_lin_eq_imp(X_INTRODUCED_201_,[X_INTRODUCED_266_,X_INTRODUCED_156_],1,X_INTRODUCED_268_):: defines_var(X_INTRODUCED_268_);
constraint bool_clause_reif([X_INTRODUCED_264_,X_INTRODUCED_268_],[X_INTRODUCED_90_],X_INTRODUCED_269_):: defines_var(X_INTRODUCED_269_);
constraint int_eq_imp(X_INTRODUCED_12_,X_INTRODUCED_142_,X_INTRODUCED_270_):: defines_var(X_INTRODUCED_270_);
constraint int_lin_eq_imp(X_INTRODUCED_201_,[X_INTRODUCED_272_,X_INTRODUCED_157_],1,X_INTRODUCED_274_):: defines_var(X_INTRODUCED_274_);
constraint bool_clause_reif([X_INTRODUCED_270_,X_INTRODUCED_274_],[X_INTRODUCED_94_],X_INTRODUCED_275_):: defines_var(X_INTRODUCED_275_);
constraint int_eq_imp(X_INTRODUCED_13_,X_INTRODUCED_142_,X_INTRODUCED_276_):: defines_var(X_INTRODUCED_276_);
constraint int_lin_eq_imp(X_INTRODUCED_201_,[X_INTRODUCED_278_,X_INTRODUCED_158_],1,X_INTRODUCED_280_):: defines_var(X_INTRODUCED_280_);
constraint bool_clause_reif([X_INTRODUCED_276_,X_INTRODUCED_280_],[X_INTRODUCED_98_],X_INTRODUCED_281_):: defines_var(X_INTRODUCED_281_);
constraint int_eq_imp(X_INTRODUCED_14_,X_INTRODUCED_142_,X_INTRODUCED_282_):: defines_var(X_INTRODUCED_282_);
constraint int_lin_eq_imp(X_INTRODUCED_201_,[X_INTRODUCED_284_,X_INTRODUCED_159_],1,X_INTRODUCED_286_):: defines_var(X_INTRODUCED_286_);
constraint bool_clause_reif([X_INTRODUCED_282_,X_INTRODUCED_286_],[X_INTRODUCED_102_],X_INTRODUCED_287_):: defines_var(X_INTRODUCED_287_);
constraint int_lin_le_imp(X_INTRODUCED_201_,[X_INTRODUCED_290_,X_INTRODUCED_145_],-1,X_INTRODUCED_291_):: defines_var(X_INTRODUCED_291_);
constraint array_bool_or([X_INTRODUCED_50_,X_INTRODUCED_291_],X_INTRODUCED_292_):: defines_var(X_INTRODUCED_292_);
constraint int_lin_le_imp(X_INTRODUCED_201_,[X_INTRODUCED_290_,X_INTRODUCED_147_],-1,X_INTRODUCED_295_):: defines_var(X_INTRODUCED_295_);
constraint array_bool_or([X_INTRODUCED_54_,X_INTRODUCED_295_],X_INTRODUCED_296_):: defines_var(X_INTRODUCED_296_);
constraint int_lin_le_imp(X_INTRODUCED_201_,[X_INTRODUCED_290_,X_INTRODUCED_148_],-1,X_INTRODUCED_297_):: defines_var(X_INTRODUCED_297_);
constraint array_bool_or([X_INTRODUCED_58_,X_INTRODUCED_297_],X_INTRODUCED_298_):: defines_var(X_INTRODUCED_298_);
constraint int_lin_le_imp(X_INTRODUCED_201_,[X_INTRODUCED_290_,X_INTRODUCED_149_],-1,X_INTRODUCED_299_):: defines_var(X_INTRODUCED_299_);
constraint array_bool_or([X_INTRODUCED_62_,X_INTRODUCED_299_],X_INTRODUCED_300_):: defines_var(X_INTRODUCED_300_);
constraint int_lin_le_imp(X_INTRODUCED_201_,[X_INTRODUCED_290_,X_INTRODUCED_150_],-1,X_INTRODUCED_301_):: defines_var(X_INTRODUCED_301_);
constraint array_bool_or([X_INTRODUCED_66_,X_INTRODUCED_301_],X_INTRODUCED_302_):: defines_var(X_INTRODUCED_302_);
constraint int_lin_le_imp(X_INTRODUCED_201_,[X_INTRODUCED_290_,X_INTRODUCED_151_],-1,X_INTRODUCED_303_):: defines_var(X_INTRODUCED_303_);
constraint array_bool_or([X_INTRODUCED_70_,X_INTRODUCED_303_],X_INTRODUCED_304_):: defines_var(X_INTRODUCED_304_);
constraint int_lin_le_imp(X_INTRODUCED_201_,[X_INTRODUCED_290_,X_INTRODUCED_152_],-1,X_INTRODUCED_305_):: defines_var(X_INTRODUCED_305_);
constraint array_bool_or([X_INTRODUCED_74_,X_INTRODUCED_305_],X_INTRODUCED_306_):: defines_var(X_INTRODUCED_306_);
constraint int_lin_le_imp(X_INTRODUCED_201_,[X_INTRODUCED_290_,X_INTRODUCED_153_],-1,X_INTRODUCED_307_):: defines_var(X_INTRODUCED_307_);
constraint array_bool_or([X_INTRODUCED_78_,X_INTRODUCED_307_],X_INTRODUCED_308_):: defines_var(X_INTRODUCED_308_);
constraint int_lin_le_imp(X_INTRODUCED_201_,[X_INTRODUCED_290_,X_INTRODUCED_154_],-1,X_INTRODUCED_309_):: defines_var(X_INTRODUCED_309_);
constraint array_bool_or([X_INTRODUCED_82_,X_INTRODUCED_309_],X_INTRODUCED_310_):: defines_var(X_INTRODUCED_310_);
constraint int_lin_le_imp(X_INTRODUCED_201_,[X_INTRODUCED_290_,X_INTRODUCED_155_],-1,X_INTRODUCED_311_):: defines_var(X_INTRODUCED_311_);
constraint array_bool_or([X_INTRODUCED_86_,X_INTRODUCED_311_],X_INTRODUCED_312_):: defines_var(X_INTRODUCED_312_);
constraint int_lin_le_imp(X_INTRODUCED_201_,[X_INTRODUCED_290_,X_INTRODUCED_156_],-1,X_INTRODUCED_313_):: defines_var(X_INTRODUCED_313_);
constraint array_bool_or([X_INTRODUCED_90_,X_INTRODUCED_313_],X_INTRODUCED_314_):: defines_var(X_INTRODUCED_314_);
constraint int_lin_le_imp(X_INTRODUCED_201_,[X_INTRODUCED_290_,X_INTRODUCED_157_],-1,X_INTRODUCED_315_):: defines_var(X_INTRODUCED_315_);
constraint array_bool_or([X_INTRODUCED_94_,X_INTRODUCED_315_],X_INTRODUCED_316_):: defines_var(X_INTRODUCED_316_);
constraint int_lin_le_imp(X_INTRODUCED_201_,[X_INTRODUCED_290_,X_INTRODUCED_158_],-1,X_INTRODUCED_317_):: defines_var(X_INTRODUCED_317_);
constraint array_bool_or([X_INTRODUCED_98_,X_INTRODUCED_317_],X_INTRODUCED_318_):: defines_var(X_INTRODUCED_318_);
constraint int_lin_le_imp(X_INTRODUCED_201_,[X_INTRODUCED_290_,X_INTRODUCED_159_],-1,X_INTRODUCED_319_):: defines_var(X_INTRODUCED_319_);
constraint array_bool_or([X_INTRODUCED_102_,X_INTRODUCED_319_],X_INTRODUCED_320_):: defines_var(X_INTRODUCED_320_);
constraint array_bool_and([X_INTRODUCED_178_,X_INTRODUCED_184_,X_INTRODUCED_187_,X_INTRODUCED_189_,X_INTRODUCED_190_,X_INTRODUCED_191_,X_INTRODUCED_203_,X_INTRODUCED_209_,X_INTRODUCED_215_,X_INTRODUCED_221_,X_INTRODUCED_227_,X_INTRODUCED_233_,X_INTRODUCED_239_,X_INTRODUCED_245_,X_INTRODUCED_251_,X_INTRODUCED_257_,X_INTRODUCED_263_,X_INTRODUCED_269_,X_INTRODUCED_275_,X_INTRODUCED_281_,X_INTRODUCED_287_,X_INTRODUCED_292_,X_INTRODUCED_296_,X_INTRODUCED_298_,X_INTRODUCED_300_,X_INTRODUCED_302_,X_INTRODUCED_304_,X_INTRODUCED_306_,X_INTRODUCED_308_,X_INTRODUCED_310_,X_INTRODUCED_312_,X_INTRODUCED_314_,X_INTRODUCED_316_,X_INTRODUCED_318_,X_INTRODUCED_320_],X_INTRODUCED_323_):: defines_var(X_INTRODUCED_323_);
solve :: seq_search([int_search(succ,first_fail,indomain_min,complete),int_search([objective],input_order,indomain_max,complete)]) maximize objective;
